# General
units            real
atom_style       full
boundary         m m m

# Style
pair_style      lj/cut 12.5
bond_style      harmonic
angle_style     hybrid cosine/periodic fourier zero
dihedral_style  harmonic
improper_style  fourier

# Input data file
read_data        data.MIL_fragment_UFF4MOF_LAMMPS

# Settings
dielectric       1.0
pair_modify      shift yes mix geometric
special_bonds lj 0.0 0.0 1.0

# Output 
thermo_style     custom step vol temp press etotal pe ke evdwl ecoul ebond eangle edihed eimp
thermo           100

# Minimization Step
min_style        sd
minimize         1.0e-5 1.0e-3 1000 10

# write output file
write_data       MIL_fragment_UFF4MOF_LAMMPS_optimised.lmps


# DONE
